12° run output:
{
    "Function": "kroA1000.tsp",
    "Problem dimension": [
        759,
        636,
        111,
        841,
        606,
        700,
        864,
        638,
        921,
        717,
        486,
        601,
        773,
        783,
        548,
        235,
        187,
        967,
        292,
        8,
        225,
        611,
        42,
        215,
        685,
        318,
        29,
        826,
        202,
        935,
        521,
        258,
        73,
        840,
        14,
        961,
        460,
        135,
        493,
        0,
        851,
        969,
        281,
        430,
        890,
        248,
        538,
        406,
        806,
        877,
        753,
        270,
        384,
        455,
        53,
        832,
        206,
        878,
        249,
        122,
        981,
        477,
        4,
        782,
        968,
        532,
        514,
        461,
        949,
        18,
        22,
        549,
        20,
        526,
        999,
        218,
        236,
        810,
        980,
        825,
        675,
        346,
        177,
        335,
        174,
        101,
        345,
        244,
        752,
        497,
        567,
        454,
        44,
        262,
        503,
        619,
        527,
        665,
        678,
        762,
        434,
        61,
        203,
        91,
        586,
        544,
        112,
        849,
        844,
        220,
        564,
        703,
        90,
        219,
        631,
        81,
        114,
        118,
        447,
        67,
        680,
        956,
        757,
        144,
        320,
        86,
        803,
        905,
        301,
        709,
        843,
        705,
        839,
        960,
        573,
        315,
        168,
        618,
        553,
        818,
        816,
        728,
        257,
        862,
        612,
        522,
        948,
        450,
        197,
        340,
        109,
        613,
        566,
        150,
        995,
        156,
        127,
        713,
        473,
        38,
        227,
        210,
        397,
        747,
        130,
        353,
        386,
        587,
        390,
        768,
        837,
        848,
        866,
        534,
        470,
        131,
        531,
        129,
        140,
        374,
        492,
        694,
        399,
        451,
        19,
        662,
        906,
        974,
        982,
        401,
        620,
        194,
        933,
        178,
        302,
        559,
        569,
        465,
        585,
        992,
        228,
        211,
        45,
        696,
        938,
        80,
        487,
        241,
        306,
        146,
        46,
        719,
        299,
        1,
        392,
        917,
        200,
        51,
        749,
        868,
        113,
        647,
        512,
        617,
        830,
        590,
        911,
        196,
        814,
        239,
        255,
        326,
        176,
        819,
        171,
        668,
        975,
        793,
        78,
        881,
        16,
        651,
        98,
        123,
        319,
        926,
        910,
        359,
        173,
        459,
        942,
        932,
        92,
        885,
        190,
        230,
        976,
        419,
        311,
        143,
        2,
        809,
        324,
        431,
        316,
        845,
        412,
        666,
        539,
        722,
        226,
        714,
        556,
        699,
        671,
        488,
        663,
        428,
        509,
        756,
        233,
        358,
        303,
        580,
        279,
        371,
        355,
        10,
        763,
        394,
        919,
        721,
        480,
        692,
        592,
        693,
        362,
        421,
        562,
        658,
        28,
        971,
        739,
        681,
        541,
        599,
        505,
        474,
        972,
        920,
        277,
        760,
        224,
        634,
        894,
        584,
        290,
        198,
        766,
        243,
        780,
        350,
        496,
        922,
        914,
        645,
        898,
        931,
        660,
        414,
        234,
        854,
        791,
        104,
        708,
        867,
        688,
        471,
        918,
        887,
        69,
        520,
        231,
        901,
        987,
        923,
        953,
        411,
        537,
        416,
        978,
        205,
        704,
        616,
        282,
        772,
        162,
        690,
        776,
        484,
        746,
        398,
        274,
        609,
        43,
        915,
        501,
        271,
        725,
        702,
        329,
        266,
        770,
        58,
        891,
        490,
        139,
        155,
        557,
        730,
        684,
        222,
        377,
        27,
        550,
        955,
        396,
        928,
        361,
        191,
        676,
        119,
        879,
        545,
        871,
        478,
        998,
        583,
        385,
        679,
        993,
        381,
        482,
        456,
        954,
        789,
        325,
        24,
        432,
        555,
        907,
        510,
        833,
        199,
        796,
        595,
        100,
        192,
        291,
        229,
        795,
        348,
        698,
        149,
        256,
        267,
        633,
        467,
        624,
        731,
        433,
        179,
        209,
        351,
        142,
        402,
        404,
        185,
        872,
        817,
        441,
        498,
        337,
        212,
        47,
        777,
        785,
        794,
        648,
        462,
        132,
        382,
        889,
        723,
        26,
        41,
        936,
        944,
        6,
        446,
        259,
        861,
        847,
        646,
        788,
        427,
        400,
        246,
        888,
        561,
        494,
        947,
        689,
        182,
        558,
        869,
        295,
        880,
        821,
        99,
        232,
        323,
        36,
        11,
        588,
        951,
        272,
        882,
        691,
        591,
        468,
        74,
        293,
        535,
        644,
        383,
        787,
        758,
        570,
        621,
        916,
        260,
        769,
        409,
        334,
        904,
        600,
        120,
        417,
        77,
        977,
        792,
        897,
        650,
        790,
        261,
        598,
        448,
        560,
        764,
        801,
        25,
        615,
        597,
        946,
        900,
        422,
        661,
        79,
        893,
        886,
        485,
        59,
        813,
        884,
        986,
        121,
        52,
        957,
        965,
        858,
        979,
        865,
        364,
        667,
        463,
        170,
        89,
        582,
        743,
        88,
        966,
        106,
        716,
        513,
        733,
        655,
        896,
        349,
        308,
        30,
        294,
        724,
        126,
        815,
        133,
        70,
        577,
        373,
        35,
        576,
        138,
        657,
        388,
        546,
        330,
        594,
        300,
        71,
        996,
        604,
        856,
        250,
        994,
        286,
        727,
        635,
        7,
        285,
        542,
        439,
        408,
        751,
        449,
        870,
        507,
        247,
        811,
        495,
        332,
        253,
        603,
        283,
        425,
        280,
        479,
        251,
        909,
        516,
        418,
        761,
        649,
        937,
        653,
        808,
        108,
        217,
        216,
        554,
        523,
        626,
        276,
        943,
        333,
        963,
        902,
        169,
        245,
        393,
        528,
        533,
        593,
        771,
        94,
        892,
        336,
        908,
        223,
        997,
        640,
        344,
        95,
        664,
        578,
        284,
        846,
        254,
        403,
        701,
        930,
        475,
        945,
        572,
        452,
        136,
        242,
        623,
        321,
        483,
        213,
        755,
        740,
        687,
        622,
        784,
        66,
        835,
        263,
        444,
        440,
        204,
        289,
        899,
        375,
        442,
        87,
        574,
        312,
        37,
        365,
        732,
        729,
        49,
        912,
        269,
        304,
        990,
        596,
        895,
        368,
        718,
        629,
        354,
        369,
        711,
        298,
        852,
        458,
        489,
        309,
        804,
        741,
        536,
        195,
        552,
        491,
        627,
        481,
        117,
        367,
        426,
        63,
        180,
        682,
        264,
        712,
        517,
        985,
        518,
        85,
        827,
        855,
        934,
        5,
        812,
        551,
        654,
        151,
        438,
        60,
        116,
        637,
        54,
        23,
        158,
        850,
        338,
        829,
        547,
        76,
        167,
        824,
        781,
        686,
        55,
        970,
        765,
        610,
        82,
        964,
        673,
        754,
        959,
        72,
        745,
        863,
        443,
        207,
        683,
        828,
        380,
        707,
        160,
        413,
        327,
        268,
        860,
        103,
        927,
        737,
        639,
        48,
        407,
        157,
        643,
        786,
        695,
        738,
        33,
        715,
        366,
        857,
        875,
        519,
        193,
        823,
        903,
        137,
        628,
        742,
        163,
        579,
        883,
        331,
        105,
        56,
        697,
        153,
        608,
        237,
        379,
        172,
        275,
        159,
        672,
        352,
        563,
        834,
        3,
        84,
        305,
        805,
        669,
        154,
        744,
        988,
        322,
        500,
        734,
        859,
        297,
        499,
        296,
        410,
        571,
        68,
        476,
        273,
        543,
        240,
        807,
        21,
        110,
        15,
        152,
        876,
        836,
        32,
        984,
        164,
        939,
        165,
        445,
        958,
        767,
        962,
        674,
        317,
        186,
        124,
        252,
        347,
        107,
        435,
        973,
        40,
        141,
        607,
        589,
        357,
        148,
        356,
        820,
        472,
        313,
        342,
        952,
        779,
        57,
        201,
        822,
        13,
        420,
        453,
        83,
        605,
        145,
        161,
        774,
        632,
        423,
        405,
        370,
        429,
        360,
        710,
        208,
        575,
        515,
        457,
        831,
        991,
        310,
        221,
        387,
        630,
        540,
        735,
        278,
        659,
        238,
        797,
        775,
        940,
        93,
        736,
        389,
        437,
        853,
        31,
        656,
        188,
        670,
        525,
        424,
        874,
        581,
        502,
        415,
        65,
        873,
        214,
        265,
        625,
        798,
        506,
        677,
        750,
        64,
        395,
        642,
        125,
        720,
        508,
        941,
        748,
        838,
        97,
        652,
        128,
        102,
        147,
        39,
        565,
        983,
        363,
        343,
        134,
        511,
        175,
        328,
        464,
        466,
        12,
        706,
        17,
        799,
        62,
        530,
        96,
        924,
        929,
        376,
        504,
        287,
        469,
        341,
        9,
        778,
        34,
        183,
        568,
        641,
        614,
        602,
        436,
        989,
        524,
        802,
        391,
        166,
        378,
        372,
        339,
        913,
        75,
        181,
        184,
        314,
        115,
        842,
        950,
        50,
        189,
        925,
        529,
        307,
        800,
        288,
        726
    ],
    "Global Optimum": 0,
    "Algorithm": "Genetic algorithm",
    "Parameters": {
        "population": 30,
        "offspring": 30,
        "mutation probability": 0.001,
        "crossover probability": 0.9
    },
    "Fitness": 1268608,
    "Solution": [
        759,
        636,
        111,
        841,
        606,
        700,
        864,
        638,
        921,
        717,
        486,
        601,
        773,
        783,
        548,
        235,
        187,
        967,
        292,
        8,
        225,
        611,
        42,
        215,
        685,
        318,
        29,
        826,
        202,
        935,
        521,
        258,
        73,
        840,
        14,
        961,
        460,
        135,
        493,
        0,
        851,
        969,
        281,
        430,
        890,
        248,
        538,
        406,
        806,
        877,
        753,
        270,
        384,
        455,
        53,
        832,
        206,
        878,
        249,
        122,
        981,
        477,
        4,
        782,
        968,
        532,
        514,
        461,
        949,
        18,
        22,
        549,
        20,
        526,
        999,
        218,
        236,
        810,
        980,
        825,
        675,
        346,
        177,
        335,
        174,
        101,
        345,
        244,
        752,
        497,
        567,
        454,
        44,
        262,
        503,
        619,
        527,
        665,
        678,
        762,
        434,
        61,
        203,
        91,
        586,
        544,
        112,
        849,
        844,
        220,
        564,
        703,
        90,
        219,
        631,
        81,
        114,
        118,
        447,
        67,
        680,
        956,
        757,
        144,
        320,
        86,
        803,
        905,
        301,
        709,
        843,
        705,
        839,
        960,
        573,
        315,
        168,
        618,
        553,
        818,
        816,
        728,
        257,
        862,
        612,
        522,
        948,
        450,
        197,
        340,
        109,
        613,
        566,
        150,
        995,
        156,
        127,
        713,
        473,
        38,
        227,
        210,
        397,
        747,
        130,
        353,
        386,
        587,
        390,
        768,
        837,
        848,
        866,
        534,
        470,
        131,
        531,
        129,
        140,
        374,
        492,
        694,
        399,
        451,
        19,
        662,
        906,
        974,
        982,
        401,
        620,
        194,
        933,
        178,
        302,
        559,
        569,
        465,
        585,
        992,
        228,
        211,
        45,
        696,
        938,
        80,
        487,
        241,
        306,
        146,
        46,
        719,
        299,
        1,
        392,
        917,
        200,
        51,
        749,
        868,
        113,
        647,
        512,
        617,
        830,
        590,
        911,
        196,
        814,
        239,
        255,
        326,
        176,
        819,
        171,
        668,
        975,
        793,
        78,
        881,
        16,
        651,
        98,
        123,
        319,
        926,
        910,
        359,
        173,
        459,
        942,
        932,
        92,
        885,
        190,
        230,
        976,
        419,
        311,
        143,
        2,
        809,
        324,
        431,
        316,
        845,
        412,
        666,
        539,
        722,
        226,
        714,
        556,
        699,
        671,
        488,
        663,
        428,
        509,
        756,
        233,
        358,
        303,
        580,
        279,
        371,
        355,
        10,
        763,
        394,
        919,
        721,
        480,
        692,
        592,
        693,
        362,
        421,
        562,
        658,
        28,
        971,
        739,
        681,
        541,
        599,
        505,
        474,
        972,
        920,
        277,
        760,
        224,
        634,
        894,
        584,
        290,
        198,
        766,
        243,
        780,
        350,
        496,
        922,
        914,
        645,
        898,
        931,
        660,
        414,
        234,
        854,
        791,
        104,
        708,
        867,
        688,
        471,
        918,
        887,
        69,
        520,
        231,
        901,
        987,
        923,
        953,
        411,
        537,
        416,
        978,
        205,
        704,
        616,
        282,
        772,
        162,
        690,
        776,
        484,
        746,
        398,
        274,
        609,
        43,
        915,
        501,
        271,
        725,
        702,
        329,
        266,
        770,
        58,
        891,
        490,
        139,
        155,
        557,
        730,
        684,
        222,
        377,
        27,
        550,
        955,
        396,
        928,
        361,
        191,
        676,
        119,
        879,
        545,
        871,
        478,
        998,
        583,
        385,
        679,
        993,
        381,
        482,
        456,
        954,
        789,
        325,
        24,
        432,
        555,
        907,
        510,
        833,
        199,
        796,
        595,
        100,
        192,
        291,
        229,
        795,
        348,
        698,
        149,
        256,
        267,
        633,
        467,
        624,
        731,
        433,
        179,
        209,
        351,
        142,
        402,
        404,
        185,
        872,
        817,
        441,
        498,
        337,
        212,
        47,
        777,
        785,
        794,
        648,
        462,
        132,
        382,
        889,
        723,
        26,
        41,
        936,
        944,
        6,
        446,
        259,
        861,
        847,
        646,
        788,
        427,
        400,
        246,
        888,
        561,
        494,
        947,
        689,
        182,
        558,
        869,
        295,
        880,
        821,
        99,
        232,
        323,
        36,
        11,
        588,
        951,
        272,
        882,
        691,
        591,
        468,
        74,
        293,
        535,
        644,
        383,
        787,
        758,
        570,
        621,
        916,
        260,
        769,
        409,
        334,
        904,
        600,
        120,
        417,
        77,
        977,
        792,
        897,
        650,
        790,
        261,
        598,
        448,
        560,
        764,
        801,
        25,
        615,
        597,
        946,
        900,
        422,
        661,
        79,
        893,
        886,
        485,
        59,
        813,
        884,
        986,
        121,
        52,
        957,
        965,
        858,
        979,
        865,
        364,
        667,
        463,
        170,
        89,
        582,
        743,
        88,
        966,
        106,
        716,
        513,
        733,
        655,
        896,
        349,
        308,
        30,
        294,
        724,
        126,
        815,
        133,
        70,
        577,
        373,
        35,
        576,
        138,
        657,
        388,
        546,
        330,
        594,
        300,
        71,
        996,
        604,
        856,
        250,
        994,
        286,
        727,
        635,
        7,
        285,
        542,
        439,
        408,
        751,
        449,
        870,
        507,
        247,
        811,
        495,
        332,
        253,
        603,
        283,
        425,
        280,
        479,
        251,
        909,
        516,
        418,
        761,
        649,
        937,
        653,
        808,
        108,
        217,
        216,
        554,
        523,
        626,
        276,
        943,
        333,
        963,
        902,
        169,
        245,
        393,
        528,
        533,
        593,
        771,
        94,
        892,
        336,
        908,
        223,
        997,
        640,
        344,
        95,
        664,
        578,
        284,
        846,
        254,
        403,
        701,
        930,
        475,
        945,
        572,
        452,
        136,
        242,
        623,
        321,
        483,
        213,
        755,
        740,
        687,
        622,
        784,
        66,
        835,
        263,
        444,
        440,
        204,
        289,
        899,
        375,
        442,
        87,
        574,
        312,
        37,
        365,
        732,
        729,
        49,
        912,
        269,
        304,
        990,
        596,
        895,
        368,
        718,
        629,
        354,
        369,
        711,
        298,
        852,
        458,
        489,
        309,
        804,
        741,
        536,
        195,
        552,
        491,
        627,
        481,
        117,
        367,
        426,
        63,
        180,
        682,
        264,
        712,
        517,
        985,
        518,
        85,
        827,
        855,
        934,
        5,
        812,
        551,
        654,
        151,
        438,
        60,
        116,
        637,
        54,
        23,
        158,
        850,
        338,
        829,
        547,
        76,
        167,
        824,
        781,
        686,
        55,
        970,
        765,
        610,
        82,
        964,
        673,
        754,
        959,
        72,
        745,
        863,
        443,
        207,
        683,
        828,
        380,
        707,
        160,
        413,
        327,
        268,
        860,
        103,
        927,
        737,
        639,
        48,
        407,
        157,
        643,
        786,
        695,
        738,
        33,
        715,
        366,
        857,
        875,
        519,
        193,
        823,
        903,
        137,
        628,
        742,
        163,
        579,
        883,
        331,
        105,
        56,
        697,
        153,
        608,
        237,
        379,
        172,
        275,
        159,
        672,
        352,
        563,
        834,
        3,
        84,
        305,
        805,
        669,
        154,
        744,
        988,
        322,
        500,
        734,
        859,
        297,
        499,
        296,
        410,
        571,
        68,
        476,
        273,
        543,
        240,
        807,
        21,
        110,
        15,
        152,
        876,
        836,
        32,
        984,
        164,
        939,
        165,
        445,
        958,
        767,
        962,
        674,
        317,
        186,
        124,
        252,
        347,
        107,
        435,
        973,
        40,
        141,
        607,
        589,
        357,
        148,
        356,
        820,
        472,
        313,
        342,
        952,
        779,
        57,
        201,
        822,
        13,
        420,
        453,
        83,
        605,
        145,
        161,
        774,
        632,
        423,
        405,
        370,
        429,
        360,
        710,
        208,
        575,
        515,
        457,
        831,
        991,
        310,
        221,
        387,
        630,
        540,
        735,
        278,
        659,
        238,
        797,
        775,
        940,
        93,
        736,
        389,
        437,
        853,
        31,
        656,
        188,
        670,
        525,
        424,
        874,
        581,
        502,
        415,
        65,
        873,
        214,
        265,
        625,
        798,
        506,
        677,
        750,
        64,
        395,
        642,
        125,
        720,
        508,
        941,
        748,
        838,
        97,
        652,
        128,
        102,
        147,
        39,
        565,
        983,
        363,
        343,
        134,
        511,
        175,
        328,
        464,
        466,
        12,
        706,
        17,
        799,
        62,
        530,
        96,
        924,
        929,
        376,
        504,
        287,
        469,
        341,
        9,
        778,
        34,
        183,
        568,
        641,
        614,
        602,
        436,
        989,
        524,
        802,
        391,
        166,
        378,
        372,
        339,
        913,
        75,
        181,
        184,
        314,
        115,
        842,
        950,
        50,
        189,
        925,
        529,
        307,
        800,
        288,
        726
    ],
    "Nb of functions evaluations": 400020,
    "Computational time in seconds": 5878.317929506302,
    "Stopping criterion in evaluations": 400000
}